VALUE 214
56 773
1174 57
109 2228
417 263
1799 375
2214 408
1818 417
1642 424
529 2059
56 628
754 915
2297 773
1162 789
834 2065
904 754
915 2030
1457 1055
834 1085
2289 1115
1162 2073
1174 1055
408 1211
1322 1483
1633 1330
1457 263
2046 1483
109 1504
1535 1504
1633 628
1322 1642
1799 904
1818 529
1085 2030
2059 2046
2059 1085
1232 2065
2073 1322
789 2181
2214 2297
2228 56
424 2238
915 2289
2297 417
2437 2181

